% number of games is 140
num = 140;
cap = 5;
refill = 2;
fun = [-17, 20, -6, 19, 12, 15, 18, -11, 7, -13, 4, 3, -8, 7, -2, -9, -5, 13, -13, -3, -4, 13, 11, -20, -13, 11, 3, -7, 1, 7, 6, -19, 19, -3, -2, -3, -2, 1, 20, -11, 9, -10, -16, -17, -3, -15, 16, -12, -15, 18, -11, 18, 6, 5, -2, 1, 13, 4, 0, -5, 9, -6, 17, 7, 8, -1, 10, -5, -5, 18, 12, 8, 3, 15, -2, -11, -5, -12, -10, -11, 17, -14, -14, 9, -14, 6, 2, 17, 14, -14, -2, 16, -5, -19, -3, 13, -19, 0, -9, 0, 0, 20, 15, 2, -6, -14, 19, 18, 3, 18, 7, 17, 1, -16, -17, 5, 6, 5, -7, -9, -5, -9, 0, -10, -3, -20, -18, -10, 14, 14, 10, -6, 18, 8, -9, 20, -6, 9, 17, -13];
